c defined variables: 
p cnf 85 57
a 1 2 3 4 5 6 7 8 9 10 11 12 13 0
d 14 7 11 13 0
d 15 1 2 4 7 0
d 16 3 4 7 12 0
d 17 5 11 0
d 18 8 13 0
d 19 7 0
d 20 4 5 6 7 0
d 21 3 4 7 11 0
d 22 5 8 11 0
d 23 13 0
d 24 12 0
d 25 1 5 6 9 0
d 26 1 7 10 12 13 0
d 27 4 6 9 11 0
-1 -7 14 15 -19 0
1 3 15 -16 -19 0
1 12 15 16 -19 0
-5 8 15 -18 -20 0
-5 -11 -15 -17 -21 0
7 13 18 19 -21 0
-3 -8 16 -18 21 0
-3 -4 14 18 21 0
3 12 -16 -20 -22 0
-6 -8 18 -20 -22 0
-7 8 -19 20 -22 0
2 4 15 -16 22 0
-4 13 18 21 -23 0
-3 7 16 17 23 0
-4 -7 17 -20 23 0
-8 13 18 -21 23 0
-5 11 -14 -22 23 0
-4 7 15 -17 -24 0
-6 7 14 20 -24 0
4 13 -14 -16 24 0
5 6 18 -20 24 0
-8 12 18 22 24 0
3 5 15 16 -25 0
7 -12 15 -24 -25 0
-3 -4 -16 -22 25 0
-1 5 17 24 25 0
-5 -13 23 24 25 0
1 -5 -14 -20 -26 0
5 10 18 -20 -26 0
-1 -10 17 -21 -26 0
-4 -10 -18 -21 -26 0
10 -12 -20 -22 -26 0
7 -8 18 22 -26 0
-7 -10 20 22 -26 0
1 5 -20 -23 -26 0
1 -13 -19 23 -26 0
5 -13 -22 -25 -26 0
7 10 -14 16 26 0
1 2 15 -18 26 0
4 8 15 22 26 0
-6 9 16 -25 26 0
-5 13 -19 -25 26 0
-1 6 15 16 -27 0
5 7 18 -20 -27 0
-7 13 14 -21 -27 0
7 -11 -20 22 -27 0
-1 11 15 24 -27 0
-1 12 18 -26 -27 0
-1 -11 20 26 -27 0
1 -6 25 26 -27 0
4 11 14 15 27 0
-7 -13 14 17 27 0
-9 -11 15 23 27 0
4 -5 -20 -24 27 0
-1 4 22 -26 27 0
6 10 -24 -26 27 0
6 12 -16 26 27 0
